(set-logic QF_NRA)
(set-info :source |Benchmarks generated from hycomp (https://es-static.fbk.eu/tools/hycomp/). BMC instances of non-linear hybrid automata taken from: Alessandro Cimatti, Sergio Mover, Stefano Tonetta, A quantifier-free SMT encoding of non-linear hybrid automata, FMCAD 2012 and Alessandro Cimatti, Sergio Mover, Stefano Tonetta, Quantier-free encoding of invariants for Hybrid Systems, Formal Methods in System Design. This instance solves a BMC problem of depth 2 and uses the quantifier free encoding with equivalences and lemmas encoding. Contacts: Sergio Mover (mover@fbk.eu), Stefano Tonetta (tonettas@fbk.eu), Alessandro Cimatti (cimatti@fbk.eu).|)
(set-info :smt-lib-version 2.0)
(set-info :category "industrial")
(set-info :status unsat)
;; MathSAT API call trace
;; generated on Mon Mar 19 10:44:06 2012
(declare-fun b.speed_x__AT1 () Real)
(declare-fun b.time__AT1 () Real)
(declare-fun b.x__AT1 () Real)
(declare-fun b.event_is_timed__AT1 () Bool)
(declare-fun b.counter.0__AT1 () Bool)
(declare-fun b.EVENT.1__AT0 () Bool)
(declare-fun b.speed_loss__AT0 () Real)
(declare-fun b.counter.1__AT1 () Bool)
(declare-fun b.speed_x__AT0 () Real)
(declare-fun b.counter.2__AT1 () Bool)
(declare-fun b.time__AT0 () Real)
(declare-fun b.counter.2__AT0 () Bool)
(declare-fun b.counter.3__AT1 () Bool)
(declare-fun b.bool_atom__AT1 () Bool)
(declare-fun b.x__AT0 () Real)
(declare-fun b.event_is_timed__AT2 () Bool)
(declare-fun b.speed_y__AT1 () Real)
(declare-fun b.delta__AT1 () Real)
(declare-fun b.bool_atom__AT0 () Bool)
(declare-fun b.y__AT0 () Real)
(declare-fun b.EVENT.1__AT1 () Bool)
(declare-fun b.EVENT.0__AT1 () Bool)
(declare-fun b.counter.0__AT0 () Bool)
(declare-fun b.delta__AT0 () Real)
(declare-fun b.counter.1__AT0 () Bool)
(declare-fun b.time__AT2 () Real)
(declare-fun b.y__AT2 () Real)
(declare-fun b.y__AT1 () Real)
(declare-fun b.EVENT.0__AT0 () Bool)
(declare-fun b.delta__AT2 () Real)
(declare-fun b.counter.0__AT2 () Bool)
(declare-fun b.x__AT2 () Real)
(declare-fun b.EVENT.0__AT2 () Bool)
(declare-fun b.counter.1__AT2 () Bool)
(declare-fun b.EVENT.1__AT2 () Bool)
(declare-fun b.counter.2__AT2 () Bool)
(declare-fun b.counter.3__AT2 () Bool)
(declare-fun b.speed_y__AT0 () Real)
(declare-fun b.bool_atom__AT2 () Bool)
(declare-fun b.speed_x__AT2 () Real)
(declare-fun b.event_is_timed__AT0 () Bool)
(declare-fun b.speed_y__AT2 () Real)
(declare-fun b.counter.3__AT0 () Bool)
(assert (let ((.def_688 (* (- 1.0) b.speed_x__AT2)))
(let ((.def_689 (* b.speed_x__AT2 .def_688)))
(let ((.def_690 (* (- 1.0) .def_689)))
(let ((.def_718 (* 2.0 .def_690)))
(let ((.def_719 (* b.delta__AT2 .def_718)))
(let ((.def_720 (* 5.0 .def_719)))
(let ((.def_620 (* (- 1.0) b.x__AT2)))
(let ((.def_701 (* b.speed_x__AT2 .def_620)))
(let ((.def_723 (* (- 5.0) .def_701)))
(let ((.def_729 (+ .def_723 .def_720)))
(let ((.def_696 (* b.x__AT2 .def_688)))
(let ((.def_721 (* (- 5.0) .def_696)))
(let ((.def_730 (+ .def_721 .def_729)))
(let ((.def_725 (* (- 49.0) b.delta__AT2)))
(let ((.def_731 (+ .def_725 .def_730)))
(let ((.def_727 (* 5.0 b.speed_y__AT2)))
(let ((.def_732 (+ .def_727 .def_731)))
(let ((.def_751 (<= .def_732 0.0 )))
(let ((.def_752 (not .def_751)))
(let ((.def_702 (* (- 1.0) .def_701)))
(let ((.def_697 (* (- 1.0) .def_696)))
(let ((.def_735 (+ .def_697 .def_702)))
(let ((.def_736 (+ b.speed_y__AT2 .def_735)))
(let ((.def_749 (<= .def_736 0.0 )))
(let ((.def_774 (or .def_749 .def_752)))
(let ((.def_737 (<= 0.0 .def_736)))
(let ((.def_738 (not .def_737)))
(let ((.def_733 (<= 0.0 .def_732)))
(let ((.def_773 (or .def_733 .def_738)))
(let ((.def_775 (and .def_773 .def_774)))
(let ((.def_772 (<= (- (/ 49 10)) .def_689)))
(let ((.def_776 (or .def_772 .def_775)))
(let ((.def_734 (not .def_733)))
(let ((.def_769 (or .def_734 .def_737)))
(let ((.def_750 (not .def_749)))
(let ((.def_768 (or .def_750 .def_751)))
(let ((.def_770 (and .def_768 .def_769)))
(let ((.def_767 (<= .def_689 (- (/ 49 10)))))
(let ((.def_771 (or .def_767 .def_770)))
(let ((.def_777 (and .def_771 .def_776)))
(let ((.def_764 (and .def_749 .def_751)))
(let ((.def_763 (and .def_733 .def_737)))
(let ((.def_765 (or .def_763 .def_764)))
(let ((.def_703 (* b.delta__AT2 .def_702)))
(let ((.def_704 (* 10.0 .def_703)))
(let ((.def_698 (* b.delta__AT2 .def_697)))
(let ((.def_699 (* 10.0 .def_698)))
(let ((.def_710 (+ .def_699 .def_704)))
(let ((.def_687 (* b.delta__AT2 b.delta__AT2)))
(let ((.def_691 (* .def_687 .def_690)))
(let ((.def_692 (* 10.0 .def_691)))
(let ((.def_711 (+ .def_692 .def_710)))
(let ((.def_694 (* (- 49.0) .def_687)))
(let ((.def_712 (+ .def_694 .def_711)))
(let ((.def_685 (* b.speed_y__AT2 b.delta__AT2)))
(let ((.def_686 (* 10.0 .def_685)))
(let ((.def_713 (+ .def_686 .def_712)))
(let ((.def_666 (* b.x__AT2 .def_620)))
(let ((.def_706 (* (- 10.0) .def_666)))
(let ((.def_714 (+ .def_706 .def_713)))
(let ((.def_708 (* 10.0 b.y__AT2)))
(let ((.def_715 (+ .def_708 .def_714)))
(let ((.def_743 (<= .def_715 0.0 )))
(let ((.def_757 (not .def_743)))
(let ((.def_741 (<= b.y__AT2 .def_666)))
(let ((.def_758 (or .def_741 .def_757)))
(let ((.def_667 (<= .def_666 b.y__AT2)))
(let ((.def_755 (not .def_667)))
(let ((.def_716 (<= 0.0 .def_715)))
(let ((.def_756 (or .def_716 .def_755)))
(let ((.def_759 (and .def_756 .def_758)))
(let ((.def_753 (or .def_750 .def_752)))
(let ((.def_754 (not .def_753)))
(let ((.def_760 (or .def_754 .def_759)))
(let ((.def_745 (not .def_716)))
(let ((.def_746 (or .def_667 .def_745)))
(let ((.def_742 (not .def_741)))
(let ((.def_744 (or .def_742 .def_743)))
(let ((.def_747 (and .def_744 .def_746)))
(let ((.def_739 (or .def_734 .def_738)))
(let ((.def_740 (not .def_739)))
(let ((.def_748 (or .def_740 .def_747)))
(let ((.def_761 (and .def_748 .def_760)))
(let ((.def_717 (and .def_667 .def_716)))
(let ((.def_762 (and .def_717 .def_761)))
(let ((.def_766 (and .def_762 .def_765)))
(let ((.def_778 (and .def_766 .def_777)))
(let ((.def_76 (<= b.speed_loss__AT0 (/ 1 2))))
(let ((.def_73 (<= (/ 1 10) b.speed_loss__AT0)))
(let ((.def_77 (and .def_73 .def_76)))
(let ((.def_779 (and .def_77 .def_778)))
(let ((.def_288 (not b.counter.0__AT1)))
(let ((.def_677 (or b.counter.1__AT1 .def_288)))
(let ((.def_678 (or b.counter.2__AT1 .def_677)))
(let ((.def_278 (not b.counter.1__AT1)))
(let ((.def_672 (and .def_278 .def_288)))
(let ((.def_283 (not b.counter.2__AT1)))
(let ((.def_676 (or .def_283 .def_672)))
(let ((.def_679 (and .def_676 .def_678)))
(let ((.def_680 (or b.counter.3__AT1 .def_679)))
(let ((.def_673 (or b.counter.2__AT1 .def_672)))
(let ((.def_671 (or .def_278 .def_283)))
(let ((.def_674 (and .def_671 .def_673)))
(let ((.def_297 (not b.counter.3__AT1)))
(let ((.def_675 (or .def_297 .def_674)))
(let ((.def_681 (and .def_675 .def_680)))
(let ((.def_668 (and .def_77 .def_667)))
(let ((.def_663 (not b.EVENT.0__AT2)))
(let ((.def_661 (not b.EVENT.1__AT2)))
(let ((.def_664 (or .def_661 .def_663)))
(let ((.def_9 (not b.counter.0__AT2)))
(let ((.def_6 (not b.counter.1__AT2)))
(let ((.def_654 (or .def_6 .def_9)))
(let ((.def_658 (or b.counter.3__AT2 .def_654)))
(let ((.def_655 (or b.counter.2__AT2 .def_654)))
(let ((.def_4 (not b.counter.2__AT2)))
(let ((.def_653 (or .def_4 .def_9)))
(let ((.def_656 (and .def_653 .def_655)))
(let ((.def_14 (not b.counter.3__AT2)))
(let ((.def_657 (or .def_14 .def_656)))
(let ((.def_659 (and .def_657 .def_658)))
(let ((.def_665 (and .def_659 .def_664)))
(let ((.def_669 (and .def_665 .def_668)))
(let ((.def_648 (<= 0.0 b.delta__AT1)))
(let ((.def_375 (not b.EVENT.0__AT1)))
(let ((.def_373 (not b.EVENT.1__AT1)))
(let ((.def_492 (and .def_373 .def_375)))
(let ((.def_494 (not .def_492)))
(let ((.def_649 (or .def_494 .def_648)))
(let ((.def_650 (or b.EVENT.1__AT1 .def_649)))
(let ((.def_532 (= b.bool_atom__AT1 b.bool_atom__AT2)))
(let ((.def_528 (= b.counter.0__AT2 b.counter.0__AT1)))
(let ((.def_526 (= b.counter.1__AT2 b.counter.1__AT1)))
(let ((.def_524 (= b.counter.2__AT2 b.counter.2__AT1)))
(let ((.def_523 (= b.counter.3__AT2 b.counter.3__AT1)))
(let ((.def_525 (and .def_523 .def_524)))
(let ((.def_527 (and .def_525 .def_526)))
(let ((.def_529 (and .def_527 .def_528)))
(let ((.def_644 (and .def_529 .def_532)))
(let ((.def_645 (or .def_494 .def_644)))
(let ((.def_646 (or b.EVENT.1__AT1 .def_645)))
(let ((.def_632 (* (- 10.0) b.y__AT2)))
(let ((.def_398 (* b.delta__AT1 b.delta__AT1)))
(let ((.def_405 (* (- 49.0) .def_398)))
(let ((.def_636 (+ .def_405 .def_632)))
(let ((.def_396 (* b.speed_y__AT1 b.delta__AT1)))
(let ((.def_397 (* 10.0 .def_396)))
(let ((.def_637 (+ .def_397 .def_636)))
(let ((.def_419 (* 10.0 b.y__AT1)))
(let ((.def_638 (+ .def_419 .def_637)))
(let ((.def_639 (= .def_638 0.0 )))
(let ((.def_627 (* (- 5.0) b.speed_y__AT2)))
(let ((.def_436 (* (- 49.0) b.delta__AT1)))
(let ((.def_628 (+ .def_436 .def_627)))
(let ((.def_438 (* 5.0 b.speed_y__AT1)))
(let ((.def_629 (+ .def_438 .def_628)))
(let ((.def_630 (= .def_629 0.0 )))
(let ((.def_619 (* b.speed_x__AT1 b.delta__AT1)))
(let ((.def_623 (+ .def_620 .def_619)))
(let ((.def_624 (+ b.x__AT1 .def_623)))
(let ((.def_625 (= .def_624 0.0 )))
(let ((.def_518 (= b.speed_x__AT1 b.speed_x__AT2)))
(let ((.def_626 (and .def_518 .def_625)))
(let ((.def_631 (and .def_626 .def_630)))
(let ((.def_640 (and .def_631 .def_639)))
(let ((.def_641 (or .def_494 .def_640)))
(let ((.def_515 (= b.y__AT1 b.y__AT2)))
(let ((.def_512 (= b.x__AT1 b.x__AT2)))
(let ((.def_613 (and .def_512 .def_515)))
(let ((.def_614 (and .def_518 .def_613)))
(let ((.def_521 (= b.speed_y__AT1 b.speed_y__AT2)))
(let ((.def_615 (and .def_521 .def_614)))
(let ((.def_610 (= b.delta__AT1 0.0 )))
(let ((.def_611 (and .def_492 .def_610)))
(let ((.def_612 (not .def_611)))
(let ((.def_616 (or .def_612 .def_615)))
(let ((.def_617 (or b.EVENT.1__AT1 .def_616)))
(let ((.def_602 (and .def_518 .def_521)))
(let ((.def_603 (and .def_529 .def_602)))
(let ((.def_604 (or b.bool_atom__AT1 .def_603)))
(let ((.def_578 (or .def_9 b.counter.0__AT1)))
(let ((.def_577 (or b.counter.0__AT2 .def_288)))
(let ((.def_579 (and .def_577 .def_578)))
(let ((.def_580 (and .def_6 .def_579)))
(let ((.def_581 (or b.counter.1__AT1 .def_580)))
(let ((.def_576 (or b.counter.1__AT2 .def_278)))
(let ((.def_582 (and .def_576 .def_581)))
(let ((.def_593 (and .def_4 .def_582)))
(let ((.def_594 (or b.counter.2__AT1 .def_593)))
(let ((.def_588 (and .def_6 .def_288)))
(let ((.def_589 (or b.counter.1__AT1 .def_588)))
(let ((.def_590 (and .def_576 .def_589)))
(let ((.def_591 (and b.counter.2__AT2 .def_590)))
(let ((.def_592 (or .def_283 .def_591)))
(let ((.def_595 (and .def_592 .def_594)))
(let ((.def_596 (and b.counter.3__AT2 .def_595)))
(let ((.def_597 (or b.counter.3__AT1 .def_596)))
(let ((.def_583 (and b.counter.2__AT2 .def_582)))
(let ((.def_584 (or b.counter.2__AT1 .def_583)))
(let ((.def_572 (or b.counter.1__AT2 b.counter.1__AT1)))
(let ((.def_570 (and .def_6 b.counter.0__AT2)))
(let ((.def_571 (or .def_278 .def_570)))
(let ((.def_573 (and .def_571 .def_572)))
(let ((.def_574 (and .def_4 .def_573)))
(let ((.def_575 (or .def_283 .def_574)))
(let ((.def_585 (and .def_575 .def_584)))
(let ((.def_586 (and .def_14 .def_585)))
(let ((.def_587 (or .def_297 .def_586)))
(let ((.def_598 (and .def_587 .def_597)))
(let ((.def_264 (* b.speed_y__AT1 b.speed_y__AT1)))
(let ((.def_262 (* b.speed_x__AT1 b.speed_x__AT1)))
(let ((.def_562 (+ .def_262 .def_264)))
(let ((.def_250 (* (- 1.0) b.speed_loss__AT0)))
(let ((.def_251 (+ 1.0 .def_250)))
(let ((.def_267 (* .def_251 .def_251)))
(let ((.def_563 (* .def_267 .def_562)))
(let ((.def_565 (* (- 1.0) .def_563)))
(let ((.def_559 (* b.speed_y__AT2 b.speed_y__AT2)))
(let ((.def_566 (+ .def_559 .def_565)))
(let ((.def_557 (* b.speed_x__AT2 b.speed_x__AT2)))
(let ((.def_567 (+ .def_557 .def_566)))
(let ((.def_568 (= .def_567 0.0 )))
(let ((.def_550 (* b.speed_y__AT1 .def_251)))
(let ((.def_247 (* (- 2.0) b.x__AT1)))
(let ((.def_248 (* (- 1.0) .def_247)))
(let ((.def_547 (* .def_248 .def_251)))
(let ((.def_548 (* b.speed_x__AT1 .def_547)))
(let ((.def_553 (+ .def_548 .def_550)))
(let ((.def_544 (* (- 2.0) b.x__AT2)))
(let ((.def_545 (* (- 1.0) .def_544)))
(let ((.def_546 (* b.speed_x__AT2 .def_545)))
(let ((.def_554 (+ .def_546 .def_553)))
(let ((.def_555 (+ b.speed_y__AT2 .def_554)))
(let ((.def_556 (= .def_555 0.0 )))
(let ((.def_569 (and .def_556 .def_568)))
(let ((.def_599 (and .def_569 .def_598)))
(let ((.def_543 (not b.bool_atom__AT1)))
(let ((.def_600 (or .def_543 .def_599)))
(let ((.def_249 (* b.speed_x__AT1 .def_248)))
(let ((.def_538 (+ b.speed_y__AT1 .def_249)))
(let ((.def_539 (<= 0.0 .def_538)))
(let ((.def_540 (not .def_539)))
(let ((.def_332 (* (- 1.0) b.x__AT1)))
(let ((.def_378 (* b.x__AT1 .def_332)))
(let ((.def_537 (= b.y__AT1 .def_378)))
(let ((.def_541 (and .def_537 .def_540)))
(let ((.def_542 (= b.bool_atom__AT1 .def_541)))
(let ((.def_601 (and .def_542 .def_600)))
(let ((.def_605 (and .def_601 .def_604)))
(let ((.def_606 (and .def_512 .def_605)))
(let ((.def_607 (and .def_515 .def_606)))
(let ((.def_608 (or .def_492 .def_607)))
(let ((.def_609 (or b.EVENT.1__AT1 .def_608)))
(let ((.def_618 (and .def_609 .def_617)))
(let ((.def_642 (and .def_618 .def_641)))
(let ((.def_499 (= b.time__AT1 b.time__AT2)))
(let ((.def_513 (and .def_499 .def_512)))
(let ((.def_516 (and .def_513 .def_515)))
(let ((.def_519 (and .def_516 .def_518)))
(let ((.def_522 (and .def_519 .def_521)))
(let ((.def_530 (and .def_522 .def_529)))
(let ((.def_533 (and .def_530 .def_532)))
(let ((.def_534 (or .def_373 .def_533)))
(let ((.def_502 (* (- 1.0) b.time__AT2)))
(let ((.def_505 (+ b.delta__AT1 .def_502)))
(let ((.def_506 (+ b.time__AT1 .def_505)))
(let ((.def_507 (= .def_506 0.0 )))
(let ((.def_508 (or .def_494 .def_507)))
(let ((.def_509 (or b.EVENT.1__AT1 .def_508)))
(let ((.def_500 (or .def_492 .def_499)))
(let ((.def_501 (or b.EVENT.1__AT1 .def_500)))
(let ((.def_510 (and .def_501 .def_509)))
(let ((.def_535 (and .def_510 .def_534)))
(let ((.def_496 (= .def_494 b.event_is_timed__AT2)))
(let ((.def_493 (= b.event_is_timed__AT1 .def_492)))
(let ((.def_497 (and .def_493 .def_496)))
(let ((.def_536 (and .def_497 .def_535)))
(let ((.def_643 (and .def_536 .def_642)))
(let ((.def_647 (and .def_643 .def_646)))
(let ((.def_651 (and .def_647 .def_650)))
(let ((.def_652 (and .def_373 .def_651)))
(let ((.def_670 (and .def_652 .def_669)))
(let ((.def_682 (and .def_670 .def_681)))
(let ((.def_399 (* (- 1.0) b.speed_x__AT1)))
(let ((.def_400 (* b.speed_x__AT1 .def_399)))
(let ((.def_401 (* (- 1.0) .def_400)))
(let ((.def_429 (* 2.0 .def_401)))
(let ((.def_430 (* b.delta__AT1 .def_429)))
(let ((.def_431 (* 5.0 .def_430)))
(let ((.def_412 (* b.speed_x__AT1 .def_332)))
(let ((.def_434 (* (- 5.0) .def_412)))
(let ((.def_440 (+ .def_434 .def_431)))
(let ((.def_407 (* b.x__AT1 .def_399)))
(let ((.def_432 (* (- 5.0) .def_407)))
(let ((.def_441 (+ .def_432 .def_440)))
(let ((.def_442 (+ .def_436 .def_441)))
(let ((.def_443 (+ .def_438 .def_442)))
(let ((.def_462 (<= .def_443 0.0 )))
(let ((.def_463 (not .def_462)))
(let ((.def_413 (* (- 1.0) .def_412)))
(let ((.def_408 (* (- 1.0) .def_407)))
(let ((.def_446 (+ .def_408 .def_413)))
(let ((.def_447 (+ b.speed_y__AT1 .def_446)))
(let ((.def_460 (<= .def_447 0.0 )))
(let ((.def_485 (or .def_460 .def_463)))
(let ((.def_448 (<= 0.0 .def_447)))
(let ((.def_449 (not .def_448)))
(let ((.def_444 (<= 0.0 .def_443)))
(let ((.def_484 (or .def_444 .def_449)))
(let ((.def_486 (and .def_484 .def_485)))
(let ((.def_483 (<= (- (/ 49 10)) .def_400)))
(let ((.def_487 (or .def_483 .def_486)))
(let ((.def_445 (not .def_444)))
(let ((.def_480 (or .def_445 .def_448)))
(let ((.def_461 (not .def_460)))
(let ((.def_479 (or .def_461 .def_462)))
(let ((.def_481 (and .def_479 .def_480)))
(let ((.def_478 (<= .def_400 (- (/ 49 10)))))
(let ((.def_482 (or .def_478 .def_481)))
(let ((.def_488 (and .def_482 .def_487)))
(let ((.def_475 (and .def_460 .def_462)))
(let ((.def_474 (and .def_444 .def_448)))
(let ((.def_476 (or .def_474 .def_475)))
(let ((.def_414 (* b.delta__AT1 .def_413)))
(let ((.def_415 (* 10.0 .def_414)))
(let ((.def_409 (* b.delta__AT1 .def_408)))
(let ((.def_410 (* 10.0 .def_409)))
(let ((.def_421 (+ .def_410 .def_415)))
(let ((.def_402 (* .def_398 .def_401)))
(let ((.def_403 (* 10.0 .def_402)))
(let ((.def_422 (+ .def_403 .def_421)))
(let ((.def_423 (+ .def_405 .def_422)))
(let ((.def_424 (+ .def_397 .def_423)))
(let ((.def_417 (* (- 10.0) .def_378)))
(let ((.def_425 (+ .def_417 .def_424)))
(let ((.def_426 (+ .def_419 .def_425)))
(let ((.def_454 (<= .def_426 0.0 )))
(let ((.def_468 (not .def_454)))
(let ((.def_452 (<= b.y__AT1 .def_378)))
(let ((.def_469 (or .def_452 .def_468)))
(let ((.def_379 (<= .def_378 b.y__AT1)))
(let ((.def_466 (not .def_379)))
(let ((.def_427 (<= 0.0 .def_426)))
(let ((.def_467 (or .def_427 .def_466)))
(let ((.def_470 (and .def_467 .def_469)))
(let ((.def_464 (or .def_461 .def_463)))
(let ((.def_465 (not .def_464)))
(let ((.def_471 (or .def_465 .def_470)))
(let ((.def_456 (not .def_427)))
(let ((.def_457 (or .def_379 .def_456)))
(let ((.def_453 (not .def_452)))
(let ((.def_455 (or .def_453 .def_454)))
(let ((.def_458 (and .def_455 .def_457)))
(let ((.def_450 (or .def_445 .def_449)))
(let ((.def_451 (not .def_450)))
(let ((.def_459 (or .def_451 .def_458)))
(let ((.def_472 (and .def_459 .def_471)))
(let ((.def_428 (and .def_379 .def_427)))
(let ((.def_473 (and .def_428 .def_472)))
(let ((.def_477 (and .def_473 .def_476)))
(let ((.def_489 (and .def_477 .def_488)))
(let ((.def_490 (and .def_77 .def_489)))
(let ((.def_45 (not b.counter.0__AT0)))
(let ((.def_388 (or b.counter.1__AT0 .def_45)))
(let ((.def_389 (or b.counter.2__AT0 .def_388)))
(let ((.def_48 (not b.counter.2__AT0)))
(let ((.def_43 (not b.counter.1__AT0)))
(let ((.def_46 (and .def_43 .def_45)))
(let ((.def_387 (or .def_46 .def_48)))
(let ((.def_390 (and .def_387 .def_389)))
(let ((.def_391 (or b.counter.3__AT0 .def_390)))
(let ((.def_384 (or .def_46 b.counter.2__AT0)))
(let ((.def_383 (or .def_43 .def_48)))
(let ((.def_385 (and .def_383 .def_384)))
(let ((.def_51 (not b.counter.3__AT0)))
(let ((.def_386 (or .def_51 .def_385)))
(let ((.def_392 (and .def_386 .def_391)))
(let ((.def_380 (and .def_77 .def_379)))
(let ((.def_376 (or .def_373 .def_375)))
(let ((.def_366 (or .def_278 .def_288)))
(let ((.def_370 (or b.counter.3__AT1 .def_366)))
(let ((.def_367 (or b.counter.2__AT1 .def_366)))
(let ((.def_365 (or .def_283 .def_288)))
(let ((.def_368 (and .def_365 .def_367)))
(let ((.def_369 (or .def_297 .def_368)))
(let ((.def_371 (and .def_369 .def_370)))
(let ((.def_377 (and .def_371 .def_376)))
(let ((.def_381 (and .def_377 .def_380)))
(let ((.def_360 (<= 0.0 b.delta__AT0)))
(let ((.def_64 (not b.EVENT.0__AT0)))
(let ((.def_62 (not b.EVENT.1__AT0)))
(let ((.def_186 (and .def_62 .def_64)))
(let ((.def_188 (not .def_186)))
(let ((.def_361 (or .def_188 .def_360)))
(let ((.def_362 (or b.EVENT.1__AT0 .def_361)))
(let ((.def_231 (= b.bool_atom__AT0 b.bool_atom__AT1)))
(let ((.def_226 (= b.counter.0__AT0 b.counter.0__AT1)))
(let ((.def_223 (= b.counter.1__AT0 b.counter.1__AT1)))
(let ((.def_220 (= b.counter.2__AT0 b.counter.2__AT1)))
(let ((.def_218 (= b.counter.3__AT0 b.counter.3__AT1)))
(let ((.def_221 (and .def_218 .def_220)))
(let ((.def_224 (and .def_221 .def_223)))
(let ((.def_227 (and .def_224 .def_226)))
(let ((.def_356 (and .def_227 .def_231)))
(let ((.def_357 (or .def_188 .def_356)))
(let ((.def_358 (or b.EVENT.1__AT0 .def_357)))
(let ((.def_345 (* (- 10.0) b.y__AT1)))
(let ((.def_85 (* b.delta__AT0 b.delta__AT0)))
(let ((.def_94 (* (- 49.0) .def_85)))
(let ((.def_348 (+ .def_94 .def_345)))
(let ((.def_83 (* b.speed_y__AT0 b.delta__AT0)))
(let ((.def_84 (* 10.0 .def_83)))
(let ((.def_349 (+ .def_84 .def_348)))
(let ((.def_109 (* 10.0 b.y__AT0)))
(let ((.def_350 (+ .def_109 .def_349)))
(let ((.def_351 (= .def_350 0.0 )))
(let ((.def_339 (* (- 5.0) b.speed_y__AT1)))
(let ((.def_128 (* (- 49.0) b.delta__AT0)))
(let ((.def_340 (+ .def_128 .def_339)))
(let ((.def_130 (* 5.0 b.speed_y__AT0)))
(let ((.def_341 (+ .def_130 .def_340)))
(let ((.def_342 (= .def_341 0.0 )))
(let ((.def_331 (* b.speed_x__AT0 b.delta__AT0)))
(let ((.def_335 (+ .def_332 .def_331)))
(let ((.def_336 (+ b.x__AT0 .def_335)))
(let ((.def_337 (= .def_336 0.0 )))
(let ((.def_212 (= b.speed_x__AT0 b.speed_x__AT1)))
(let ((.def_338 (and .def_212 .def_337)))
(let ((.def_343 (and .def_338 .def_342)))
(let ((.def_352 (and .def_343 .def_351)))
(let ((.def_353 (or .def_188 .def_352)))
(let ((.def_209 (= b.y__AT0 b.y__AT1)))
(let ((.def_206 (= b.x__AT0 b.x__AT1)))
(let ((.def_325 (and .def_206 .def_209)))
(let ((.def_326 (and .def_212 .def_325)))
(let ((.def_215 (= b.speed_y__AT0 b.speed_y__AT1)))
(let ((.def_327 (and .def_215 .def_326)))
(let ((.def_322 (= b.delta__AT0 0.0 )))
(let ((.def_323 (and .def_186 .def_322)))
(let ((.def_324 (not .def_323)))
(let ((.def_328 (or .def_324 .def_327)))
(let ((.def_329 (or b.EVENT.1__AT0 .def_328)))
(let ((.def_314 (and .def_212 .def_215)))
(let ((.def_315 (and .def_227 .def_314)))
(let ((.def_316 (or b.bool_atom__AT0 .def_315)))
(let ((.def_289 (or b.counter.0__AT0 .def_288)))
(let ((.def_287 (or .def_45 b.counter.0__AT1)))
(let ((.def_290 (and .def_287 .def_289)))
(let ((.def_291 (and .def_278 .def_290)))
(let ((.def_292 (or b.counter.1__AT0 .def_291)))
(let ((.def_286 (or .def_43 b.counter.1__AT1)))
(let ((.def_293 (and .def_286 .def_292)))
(let ((.def_305 (and .def_283 .def_293)))
(let ((.def_306 (or b.counter.2__AT0 .def_305)))
(let ((.def_300 (and .def_45 .def_278)))
(let ((.def_301 (or b.counter.1__AT0 .def_300)))
(let ((.def_302 (and .def_286 .def_301)))
(let ((.def_303 (and b.counter.2__AT1 .def_302)))
(let ((.def_304 (or .def_48 .def_303)))
(let ((.def_307 (and .def_304 .def_306)))
(let ((.def_308 (and b.counter.3__AT1 .def_307)))
(let ((.def_309 (or b.counter.3__AT0 .def_308)))
(let ((.def_294 (and b.counter.2__AT1 .def_293)))
(let ((.def_295 (or b.counter.2__AT0 .def_294)))
(let ((.def_281 (or b.counter.1__AT0 b.counter.1__AT1)))
(let ((.def_279 (and b.counter.0__AT1 .def_278)))
(let ((.def_280 (or .def_43 .def_279)))
(let ((.def_282 (and .def_280 .def_281)))
(let ((.def_284 (and .def_282 .def_283)))
(let ((.def_285 (or .def_48 .def_284)))
(let ((.def_296 (and .def_285 .def_295)))
(let ((.def_298 (and .def_296 .def_297)))
(let ((.def_299 (or .def_51 .def_298)))
(let ((.def_310 (and .def_299 .def_309)))
(let ((.def_269 (* b.speed_y__AT0 b.speed_y__AT0)))
(let ((.def_268 (* b.speed_x__AT0 b.speed_x__AT0)))
(let ((.def_270 (+ .def_268 .def_269)))
(let ((.def_271 (* .def_267 .def_270)))
(let ((.def_273 (* (- 1.0) .def_271)))
(let ((.def_274 (+ .def_264 .def_273)))
(let ((.def_275 (+ .def_262 .def_274)))
(let ((.def_276 (= .def_275 0.0 )))
(let ((.def_255 (* b.speed_y__AT0 .def_251)))
(let ((.def_238 (* (- 2.0) b.x__AT0)))
(let ((.def_239 (* (- 1.0) .def_238)))
(let ((.def_252 (* .def_239 .def_251)))
(let ((.def_253 (* b.speed_x__AT0 .def_252)))
(let ((.def_258 (+ .def_253 .def_255)))
(let ((.def_259 (+ .def_249 .def_258)))
(let ((.def_260 (+ b.speed_y__AT1 .def_259)))
(let ((.def_261 (= .def_260 0.0 )))
(let ((.def_277 (and .def_261 .def_276)))
(let ((.def_311 (and .def_277 .def_310)))
(let ((.def_246 (not b.bool_atom__AT0)))
(let ((.def_312 (or .def_246 .def_311)))
(let ((.def_240 (* b.speed_x__AT0 .def_239)))
(let ((.def_241 (+ b.speed_y__AT0 .def_240)))
(let ((.def_242 (<= 0.0 .def_241)))
(let ((.def_243 (not .def_242)))
(let ((.def_68 (* (- 1.0) b.x__AT0)))
(let ((.def_69 (* b.x__AT0 .def_68)))
(let ((.def_236 (= b.y__AT0 .def_69)))
(let ((.def_244 (and .def_236 .def_243)))
(let ((.def_245 (= b.bool_atom__AT0 .def_244)))
(let ((.def_313 (and .def_245 .def_312)))
(let ((.def_317 (and .def_313 .def_316)))
(let ((.def_318 (and .def_206 .def_317)))
(let ((.def_319 (and .def_209 .def_318)))
(let ((.def_320 (or .def_186 .def_319)))
(let ((.def_321 (or b.EVENT.1__AT0 .def_320)))
(let ((.def_330 (and .def_321 .def_329)))
(let ((.def_354 (and .def_330 .def_353)))
(let ((.def_193 (= b.time__AT0 b.time__AT1)))
(let ((.def_207 (and .def_193 .def_206)))
(let ((.def_210 (and .def_207 .def_209)))
(let ((.def_213 (and .def_210 .def_212)))
(let ((.def_216 (and .def_213 .def_215)))
(let ((.def_228 (and .def_216 .def_227)))
(let ((.def_232 (and .def_228 .def_231)))
(let ((.def_233 (or .def_62 .def_232)))
(let ((.def_196 (* (- 1.0) b.time__AT1)))
(let ((.def_199 (+ b.delta__AT0 .def_196)))
(let ((.def_200 (+ b.time__AT0 .def_199)))
(let ((.def_201 (= .def_200 0.0 )))
(let ((.def_202 (or .def_188 .def_201)))
(let ((.def_203 (or b.EVENT.1__AT0 .def_202)))
(let ((.def_194 (or .def_186 .def_193)))
(let ((.def_195 (or b.EVENT.1__AT0 .def_194)))
(let ((.def_204 (and .def_195 .def_203)))
(let ((.def_234 (and .def_204 .def_233)))
(let ((.def_190 (= .def_188 b.event_is_timed__AT1)))
(let ((.def_187 (= b.event_is_timed__AT0 .def_186)))
(let ((.def_191 (and .def_187 .def_190)))
(let ((.def_235 (and .def_191 .def_234)))
(let ((.def_355 (and .def_235 .def_354)))
(let ((.def_359 (and .def_355 .def_358)))
(let ((.def_363 (and .def_359 .def_362)))
(let ((.def_364 (and .def_62 .def_363)))
(let ((.def_382 (and .def_364 .def_381)))
(let ((.def_393 (and .def_382 .def_392)))
(let ((.def_86 (* (- 1.0) b.speed_x__AT0)))
(let ((.def_87 (* b.speed_x__AT0 .def_86)))
(let ((.def_88 (* (- 1.0) .def_87)))
(let ((.def_119 (* 2.0 .def_88)))
(let ((.def_120 (* b.delta__AT0 .def_119)))
(let ((.def_122 (* 5.0 .def_120)))
(let ((.def_101 (* b.speed_x__AT0 .def_68)))
(let ((.def_126 (* (- 5.0) .def_101)))
(let ((.def_132 (+ .def_126 .def_122)))
(let ((.def_96 (* b.x__AT0 .def_86)))
(let ((.def_124 (* (- 5.0) .def_96)))
(let ((.def_133 (+ .def_124 .def_132)))
(let ((.def_134 (+ .def_128 .def_133)))
(let ((.def_135 (+ .def_130 .def_134)))
(let ((.def_154 (<= .def_135 0.0 )))
(let ((.def_155 (not .def_154)))
(let ((.def_102 (* (- 1.0) .def_101)))
(let ((.def_97 (* (- 1.0) .def_96)))
(let ((.def_138 (+ .def_97 .def_102)))
(let ((.def_139 (+ b.speed_y__AT0 .def_138)))
(let ((.def_152 (<= .def_139 0.0 )))
(let ((.def_179 (or .def_152 .def_155)))
(let ((.def_140 (<= 0.0 .def_139)))
(let ((.def_141 (not .def_140)))
(let ((.def_136 (<= 0.0 .def_135)))
(let ((.def_178 (or .def_136 .def_141)))
(let ((.def_180 (and .def_178 .def_179)))
(let ((.def_177 (<= (- (/ 49 10)) .def_87)))
(let ((.def_181 (or .def_177 .def_180)))
(let ((.def_137 (not .def_136)))
(let ((.def_174 (or .def_137 .def_140)))
(let ((.def_153 (not .def_152)))
(let ((.def_173 (or .def_153 .def_154)))
(let ((.def_175 (and .def_173 .def_174)))
(let ((.def_172 (<= .def_87 (- (/ 49 10)))))
(let ((.def_176 (or .def_172 .def_175)))
(let ((.def_182 (and .def_176 .def_181)))
(let ((.def_167 (and .def_152 .def_154)))
(let ((.def_166 (and .def_136 .def_140)))
(let ((.def_168 (or .def_166 .def_167)))
(let ((.def_103 (* b.delta__AT0 .def_102)))
(let ((.def_104 (* 10.0 .def_103)))
(let ((.def_98 (* b.delta__AT0 .def_97)))
(let ((.def_99 (* 10.0 .def_98)))
(let ((.def_111 (+ .def_99 .def_104)))
(let ((.def_89 (* .def_85 .def_88)))
(let ((.def_90 (* 10.0 .def_89)))
(let ((.def_112 (+ .def_90 .def_111)))
(let ((.def_113 (+ .def_94 .def_112)))
(let ((.def_114 (+ .def_84 .def_113)))
(let ((.def_107 (* (- 10.0) .def_69)))
(let ((.def_115 (+ .def_107 .def_114)))
(let ((.def_116 (+ .def_109 .def_115)))
(let ((.def_146 (<= .def_116 0.0 )))
(let ((.def_160 (not .def_146)))
(let ((.def_144 (<= b.y__AT0 .def_69)))
(let ((.def_161 (or .def_144 .def_160)))
(let ((.def_70 (<= .def_69 b.y__AT0)))
(let ((.def_158 (not .def_70)))
(let ((.def_117 (<= 0.0 .def_116)))
(let ((.def_159 (or .def_117 .def_158)))
(let ((.def_162 (and .def_159 .def_161)))
(let ((.def_156 (or .def_153 .def_155)))
(let ((.def_157 (not .def_156)))
(let ((.def_163 (or .def_157 .def_162)))
(let ((.def_148 (not .def_117)))
(let ((.def_149 (or .def_70 .def_148)))
(let ((.def_145 (not .def_144)))
(let ((.def_147 (or .def_145 .def_146)))
(let ((.def_150 (and .def_147 .def_149)))
(let ((.def_142 (or .def_137 .def_141)))
(let ((.def_143 (not .def_142)))
(let ((.def_151 (or .def_143 .def_150)))
(let ((.def_164 (and .def_151 .def_163)))
(let ((.def_118 (and .def_70 .def_117)))
(let ((.def_165 (and .def_118 .def_164)))
(let ((.def_169 (and .def_165 .def_168)))
(let ((.def_183 (and .def_169 .def_182)))
(let ((.def_184 (and .def_77 .def_183)))
(let ((.def_78 (and .def_70 .def_77)))
(let ((.def_65 (or .def_62 .def_64)))
(let ((.def_55 (or .def_43 .def_45)))
(let ((.def_59 (or b.counter.3__AT0 .def_55)))
(let ((.def_56 (or b.counter.2__AT0 .def_55)))
(let ((.def_54 (or .def_45 .def_48)))
(let ((.def_57 (and .def_54 .def_56)))
(let ((.def_58 (or .def_51 .def_57)))
(let ((.def_60 (and .def_58 .def_59)))
(let ((.def_66 (and .def_60 .def_65)))
(let ((.def_79 (and .def_66 .def_78)))
(let ((.def_49 (and .def_46 .def_48)))
(let ((.def_52 (and .def_49 .def_51)))
(let ((.def_40 (= b.speed_y__AT0 1.0 )))
(let ((.def_37 (= b.speed_x__AT0 1.0 )))
(let ((.def_33 (= b.y__AT0 10.0 )))
(let ((.def_29 (= b.x__AT0 0.0 )))
(let ((.def_25 (= b.time__AT0 0.0 )))
(let ((.def_27 (and .def_25 b.event_is_timed__AT0)))
(let ((.def_30 (and .def_27 .def_29)))
(let ((.def_34 (and .def_30 .def_33)))
(let ((.def_38 (and .def_34 .def_37)))
(let ((.def_41 (and .def_38 .def_40)))
(let ((.def_53 (and .def_41 .def_52)))
(let ((.def_80 (and .def_53 .def_79)))
(let ((.def_17 (or b.counter.1__AT2 .def_9)))
(let ((.def_18 (or b.counter.2__AT2 .def_17)))
(let ((.def_10 (and .def_6 .def_9)))
(let ((.def_16 (or .def_4 .def_10)))
(let ((.def_19 (and .def_16 .def_18)))
(let ((.def_20 (or b.counter.3__AT2 .def_19)))
(let ((.def_11 (or b.counter.2__AT2 .def_10)))
(let ((.def_7 (or .def_4 .def_6)))
(let ((.def_12 (and .def_7 .def_11)))
(let ((.def_15 (or .def_12 .def_14)))
(let ((.def_21 (and .def_15 .def_20)))
(let ((.def_22 (not .def_21)))
(let ((.def_81 (and .def_22 .def_80)))
(let ((.def_185 (and .def_81 .def_184)))
(let ((.def_394 (and .def_185 .def_393)))
(let ((.def_491 (and .def_394 .def_490)))
(let ((.def_683 (and .def_491 .def_682)))
(let ((.def_780 (and .def_683 .def_779)))
.def_780)))))))))))))))))))))))))))))))))))))))))))))))))))))))))))))))))))))))))))))))))))))))))))))))))))))))))))))))))))))))))))))))))))))))))))))))))))))))))))))))))))))))))))))))))))))))))))))))))))))))))))))))))))))))))))))))))))))))))))))))))))))))))))))))))))))))))))))))))))))))))))))))))))))))))))))))))))))))))))))))))))))))))))))))))))))))))))))))))))))))))))))))))))))))))))))))))))))))))))))))))))))))))))))))))))))))))))))))))))))))))))))))))))))))))))))))))))))))))))))))))))))))))))))))))))))))))))))))))))))))))))))))))))))))))))))))))))))))))))))))))))))))))))))))))))))))))))))))))))))))))))))))))))))))))))))))))))))))))))))))))))))))))))))))))))))))
(check-sat)
(exit)
